f:28519455
solution:
172 44 81 140 82 86 101 31 28 106 27 22 187 62 103 130 171 166 146 20 96 197 116 40 107 9 16 54 161 186 17 56 165 74 91 153 194 10 110 5 43 78 49 123 119 13 66 29 117 139 33 47 72 21 32 98 193 149 164 83 87 157 76 34 181 92 121 24 126 57 147 183 118 88 12 80 143 19 100 41 185 11 137 154 188 25 170 192 39 151 94 134 176 71 2 162 184 132 68 18 113 42 179 0 189 127 135 59 182 112 144 69 55 169 38 90 37 167 196 155 136 114 45 61 89 60 145 159 93 36 6 191 124 158 198 178 168 63 50 67 142 77 173 65 23 152 26 111 199 120 133 35 99 95 15 160 115 48 148 75 102 128 1 125 108 104 14 79 131 3 163 175 73 150 97 138 64 141 58 84 180 30 70 7 53 156 105 122 195 174 4 109 177 85 46 129 190 8 51 52 
